p cnf 8 126
-1 0
-2 0
-3 0
4 0
-5 0
6 0
7 0
8 0
9 0
-10 0
11 0
12 0
13 0
-14 0
15 0
1 2 3 4 5 0
1 2 3 4 20 0
1 2 3 19 5 0
1 2 3 19 20 0
1 2 18 4 5 0
1 2 18 4 20 0
1 2 18 19 5 0
1 2 18 19 20 0
1 17 3 4 5 0
1 17 3 4 20 0
1 17 3 19 5 0
1 17 3 19 20 0
1 17 18 4 5 0
1 17 18 4 20 0
1 17 18 19 5 0
1 17 18 19 20 0
16 2 3 4 5 0
16 2 3 4 20 0
16 2 3 19 5 0
16 2 3 19 20 0
16 2 18 4 5 0
16 2 18 4 20 0
16 2 18 19 5 0
16 2 18 19 20 0
16 17 3 4 5 0
16 17 3 4 20 0
16 17 3 19 5 0
16 17 3 19 20 0
16 17 18 4 5 0
16 17 18 4 20 0
16 17 18 19 5 0
16 17 18 19 20 0
6 7 8 9 10 0
6 7 8 9 20 0
6 7 8 19 10 0
6 7 8 19 20 0
6 7 18 9 10 0
6 7 18 9 20 0
6 7 18 19 10 0
6 7 18 19 20 0
6 17 8 9 10 0
6 17 8 9 20 0
6 17 8 19 10 0
6 17 8 19 20 0
6 17 18 9 10 0
6 17 18 9 20 0
6 17 18 19 10 0
6 17 18 19 20 0
16 7 8 9 10 0
16 7 8 9 20 0
16 7 8 19 10 0
16 7 8 19 20 0
16 7 18 9 10 0
16 7 18 9 20 0
16 7 18 19 10 0
16 7 18 19 20 0
16 17 8 9 10 0
16 17 8 9 20 0
16 17 8 19 10 0
16 17 8 19 20 0
16 17 18 9 10 0
16 17 18 9 20 0
16 17 18 19 10 0
16 17 18 19 20 0
11 12 13 14 15 0
11 12 13 14 20 0
11 12 13 19 15 0
11 12 13 19 20 0
11 12 18 14 15 0
11 12 18 14 20 0
11 12 18 19 15 0
11 12 18 19 20 0
11 17 13 14 15 0
11 17 13 14 20 0
11 17 13 19 15 0
11 17 13 19 20 0
11 17 18 14 15 0
11 17 18 14 20 0
11 17 18 19 15 0
11 17 18 19 20 0
16 12 13 14 15 0
16 12 13 14 20 0
16 12 13 19 15 0
16 12 13 19 20 0
16 12 18 14 15 0
16 12 18 14 20 0
16 12 18 19 15 0
16 12 18 19 20 0
16 17 13 14 15 0
16 17 13 14 20 0
16 17 13 19 15 0
16 17 13 19 20 0
16 17 18 14 15 0
16 17 18 14 20 0
16 17 18 19 15 0
16 17 18 19 20 0
-16 -17 -18 0
-16 -17 -19 0
-16 -17 -20 0
-16 -18 -19 0
-16 -18 -20 0
-16 -19 -20 0
-17 -18 -19 0
-17 -18 -20 0
-17 -19 -20 0
-18 -19 -20 0
16 17 18 19 0
16 17 18 20 0
16 17 19 20 0
16 18 19 20 0
17 18 19 20 0
